************************************************************************
file with basedata            : mf44_.bas
initial value random generator: 551958979
************************************************************************
projects                      :  1
jobs (incl. supersource/sink ):  32
horizon                       :  238
RESOURCES
  - renewable                 :  2   R
  - nonrenewable              :  2   N
  - doubly constrained        :  0   D
************************************************************************
PROJECT INFORMATION:
pronr.  #jobs rel.date duedate tardcost  MPM-Time
    1     30      0       30        4       30
************************************************************************
PRECEDENCE RELATIONS:
jobnr.    #modes  #successors   successors
   1        1          3           2   3   4
   2        3          3           5   6  27
   3        3          3           7  20  22
   4        3          2           5  10
   5        3          3          11  22  26
   6        3          3           8  11  18
   7        3          3          12  17  19
   8        3          3           9  12  13
   9        3          3          15  16  25
  10        3          1          21
  11        3          1          31
  12        3          2          25  28
  13        3          2          14  19
  14        3          2          17  30
  15        3          3          20  23  30
  16        3          2          20  28
  17        3          2          23  24
  18        3          2          21  22
  19        3          2          23  24
  20        3          1          31
  21        3          1          24
  22        3          1          28
  23        3          1          29
  24        3          1          25
  25        3          1          26
  26        3          1          31
  27        3          1          29
  28        3          2          29  30
  29        3          1          32
  30        3          1          32
  31        3          1          32
  32        1          0        
************************************************************************
REQUESTS/DURATIONS:
jobnr. mode duration  R 1  R 2  N 1  N 2
------------------------------------------------------------------------
  1      1     0       0    0    0    0
  2      1     1       1    0    8    9
         2     6       1    0    8    8
         3     7       0    9    4    7
  3      1     1       0    8    9   10
         2     5       0    7    7    9
         3     9       0    7    4    7
  4      1     1       0    7    5   10
         2     8       0    4    5   10
         3     9      10    0    4   10
  5      1     2       6    0    5    8
         2     2       0    6    6    9
         3     3       0    5    3    7
  6      1     1       2    0    8    8
         2     7       1    0    5    5
         3    10       0    6    4    3
  7      1     3       4    0    8    9
         2     6       0    6    3    8
         3     8       0    2    1    5
  8      1     5       6    0    6   10
         2     6       5    0    5   10
         3     8       5    0    4    9
  9      1     1       0    2   10    7
         2     4       7    0    7    5
         3     6       5    0    7    3
 10      1     1       0    7    7    4
         2     7       0    6    7    3
         3     8       0    5    7    3
 11      1     4       2    0    3    9
         2     6       0    9    3    7
         3     8       0    8    2    5
 12      1     5       8    0    8    4
         2     9       0    3    1    1
         3     9       2    0    2    3
 13      1     3       8    0    8    7
         2     7       6    0    5    5
         3     9       5    0    3    4
 14      1     4      10    0    9    4
         2     5       7    0    8    3
         3    10       0    3    8    3
 15      1     2       2    0    9    5
         2     4       0    9    9    4
         3     9       0    5    7    2
 16      1     5       0    8    9   10
         2     7       0    7    7   10
         3     8       7    0    5   10
 17      1     1       0    8    8   10
         2     3      10    0    7    9
         3     8       0    3    5    8
 18      1     3       0    3    4    6
         2     6       6    0    2    3
         3     9       0    2    2    2
 19      1     4       0    8    8    6
         2     6       0    7    6    4
         3     6       4    0    6    2
 20      1     3       4    0    7    6
         2     8       2    0    4    5
         3     9       1    0    1    5
 21      1     2       0    7    8    6
         2     2       0    8    7    7
         3     4       0    6    7    6
 22      1     1       0    6   10    5
         2     5       0    6    8    4
         3     9       0    6    8    3
 23      1     2       8    0    9    6
         2     7       7    0    9    6
         3    10       5    0    9    2
 24      1     2       0    8   10    7
         2     4       0    4    7    5
         3     4       0    5    6    7
 25      1     8       4    0    5    1
         2     9       0    7    5    1
         3    10       0    7    4    1
 26      1     4       3    0    5    7
         2     7       3    0    2    3
         3     8       0   10    2    2
 27      1     6       0    7    8    7
         2     6       7    0    7   10
         3     7       0    6    2    7
 28      1     6       0    8    8    9
         2     7       8    0    8    7
         3     8       0    8    5    1
 29      1     7       5    0    8    6
         2     9       0    7    6    5
         3    10       2    0    6    3
 30      1     3       6    0    7    3
         2     4       0    7    6    3
         3     7       5    0    6    3
 31      1     1       5    0   10    9
         2     7       3    0   10    9
         3     8       0    5   10    8
 32      1     0       0    0    0    0
************************************************************************
RESOURCEAVAILABILITIES:
  R 1  R 2  N 1  N 2
   39   31  186  175
************************************************************************
